Normalized Data/p04_24_normalized_split0.vrp
NAME:p04_24_NORMALIZED_split
BEST_KNOWN: 0
COMMENT: 0
DIMENSION: 621
CAPACITY: 100
EDGE_WEIGHT_FORMAT: FUNCTION
EDGE_WEIGHT_TYPE: EXACT_2D
NODE_COORD_SECTION
1 0.00000 0.00000
2 -49 -18
3 -49 -18
4 -49 -18
5 -49 -18
6 -49 -18
7 -49 -18
8 -49 -18
9 -25 -37
10 -25 -37
11 -25 -37
12 -25 -37
13 -25 -37
14 -43 3
15 -43 3
16 -43 3
17 -43 3
18 6 32
19 6 32
20 6 32
21 -21 -1
22 -21 -1
23 -21 -1
24 -21 -1
25 -21 -1
26 27 20
27 27 20
28 -7 45
29 -7 45
30 -7 45
31 -7 45
32 -7 45
33 -7 45
34 17 -21
35 17 -21
36 17 -21
37 17 -21
38 17 -21
39 39 -5
40 39 -5
41 39 -5
42 39 -5
43 -17 -19
44 -17 -19
45 -17 -19
46 -17 -19
47 -17 -19
48 -21 -6
49 -21 -6
50 -21 -6
51 -21 -6
52 -21 -6
53 16 36
54 16 36
55 16 36
56 16 36
57 8 8
58 8 8
59 8 8
60 8 8
61 8 8
62 8 8
63 25 9
64 25 9
65 -7 37
66 -7 37
67 -37 11
68 -37 11
69 -37 11
70 -37 11
71 -37 11
72 37 -47
73 37 -47
74 37 -47
75 -45 -12
76 -45 -12
77 -45 -12
78 -45 -12
79 40 -2
80 40 -2
81 40 -2
82 41 -48
83 41 -48
84 41 -48
85 41 -48
86 -32 1
87 -32 1
88 5 50
89 42 -10
90 42 -10
91 42 -10
92 42 -10
93 42 -10
94 42 -10
95 46 -34
96 46 -34
97 46 -34
98 46 -34
99 46 -34
100 -4 -21
101 -4 -21
102 -4 -21
103 -4 -21
104 -8 14
105 -8 14
106 -8 14
107 -8 14
108 49 -33
109 49 -33
110 49 -33
111 -29 -50
112 -29 -50
113 -29 -50
114 -29 -50
115 -29 -50
116 -18 8
117 -18 8
118 -18 8
119 -18 8
120 16 -31
121 16 -31
122 16 -31
123 7 -22
124 7 -22
125 7 -22
126 7 -22
127 26 8
128 26 8
129 26 8
130 26 8
131 26 8
132 26 8
133 -24 -13
134 -24 -13
135 -24 -13
136 -24 -13
137 -24 -13
138 -24 -13
139 7 2
140 7 2
141 7 2
142 7 2
143 7 2
144 -38 32
145 -38 32
146 -38 32
147 -38 32
148 -38 32
149 -31 -30
150 -31 -30
151 -31 -30
152 -31 -30
153 -31 -30
154 -31 -30
155 11 -50
156 11 -50
157 11 -50
158 11 -50
159 23 40
160 23 40
161 23 40
162 29 3
163 29 3
164 29 3
165 29 3
166 29 3
167 29 3
168 29 3
169 37 -35
170 37 -35
171 -37 2
172 -37 2
173 -37 2
174 -37 2
175 -37 2
176 -37 2
177 23 43
178 23 43
179 -19 -24
180 -19 -24
181 -19 -24
182 -19 -24
183 -19 -24
184 -14 -17
185 -14 -17
186 -14 -17
187 -14 -17
188 -14 -17
189 -14 -17
190 27 -19
191 27 -19
192 27 -19
193 27 -19
194 27 -19
195 23 21
196 23 21
197 23 21
198 23 21
199 49 15
200 49 15
201 49 15
202 49 15
203 49 15
204 -37 35
205 -37 35
206 -37 35
207 -13 -19
208 -13 -19
209 -4 21
210 -4 21
211 -4 21
212 -4 21
213 -4 21
214 -4 21
215 -43 -20
216 -43 -20
217 -43 -20
218 -43 -20
219 -43 -20
220 -43 -20
221 47 3
222 47 3
223 47 3
224 47 3
225 -24 -23
226 -17 -27
227 -17 -27
228 -17 -27
229 -17 -27
230 -17 -27
231 -17 -27
232 6 33
233 6 33
234 6 33
235 6 33
236 6 33
237 6 33
238 -34 -40
239 -34 -40
240 -34 -40
241 -10 -4
242 -10 -4
243 -10 -4
244 -10 -4
245 -10 -4
246 40 24
247 40 24
248 40 24
249 40 24
250 40 24
251 26 22
252 26 22
253 26 22
254 26 22
255 26 22
256 -40 5
257 -40 5
258 -40 5
259 3 50
260 3 50
261 -45 -34
262 -45 -34
263 -45 -34
264 -45 -34
265 -45 -34
266 -45 -34
267 27 7
268 27 7
269 27 7
270 27 7
271 27 7
272 -3 28
273 -3 28
274 -3 28
275 -3 28
276 -3 28
277 15 -50
278 15 -50
279 15 -50
280 15 -50
281 15 -50
282 -28 20
283 -28 20
284 -28 20
285 47 22
286 47 22
287 47 22
288 47 22
289 47 22
290 47 22
291 10 42
292 10 42
293 24 -21
294 24 -21
295 24 -21
296 24 -21
297 24 -21
298 24 -21
299 49 -41
300 49 -41
301 49 -41
302 49 -41
303 -49 35
304 -49 35
305 -49 35
306 -49 35
307 -49 35
308 -41 39
309 -41 39
310 -45 38
311 -45 38
312 -45 38
313 -45 38
314 -45 38
315 -45 38
316 23 23
317 23 23
318 23 23
319 23 23
320 23 23
321 24 8
322 24 8
323 24 8
324 14 47
325 14 47
326 14 47
327 -2 -47
328 -2 -47
329 -1 46
330 -1 46
331 -1 46
332 -1 46
333 -1 46
334 -1 46
335 16 -19
336 16 -19
337 16 -19
338 16 -19
339 42 -46
340 42 -46
341 42 -46
342 42 -46
343 19 -41
344 19 -41
345 30 -22
346 30 -22
347 30 -22
348 30 -22
349 30 -22
350 -34 -33
351 -34 -33
352 -24 -44
353 -24 -44
354 11 -18
355 11 -18
356 11 -18
357 11 -18
358 11 -18
359 11 -18
360 -31 -30
361 -31 -30
362 -31 -30
363 46 49
364 46 49
365 46 49
366 46 49
367 14 -33
368 14 -33
369 14 -33
370 14 -33
371 14 -33
372 -9 -30
373 -9 -30
374 -9 -30
375 -9 -30
376 -9 -30
377 -9 -30
378 19 -23
379 19 -23
380 19 -23
381 19 -23
382 15 -44
383 15 -44
384 15 -44
385 15 -44
386 15 -44
387 39 44
388 39 44
389 39 44
390 29 -23
391 29 -23
392 -23 -44
393 -23 -44
394 -23 -44
395 -23 -44
396 -23 -44
397 -16 -22
398 -16 -22
399 -16 -22
400 -16 -22
401 -16 -22
402 -16 -22
403 -21 -18
404 -21 -18
405 -21 -18
406 31 -20
407 31 -20
408 31 -20
409 -1 38
410 -1 38
411 -1 38
412 -38 15
413 -1 -19
414 -1 -19
415 -1 -19
416 -1 -19
417 -47 -22
418 -47 -22
419 -47 -22
420 10 -48
421 10 -48
422 10 -48
423 5 -10
424 5 -10
425 5 -10
426 5 -10
427 21 -4
428 21 -4
429 21 -4
430 18 18
431 18 18
432 18 18
433 18 18
434 18 18
435 -4 -46
436 -4 -46
437 -4 -46
438 -4 -46
439 -4 -46
440 -20 -22
441 -20 -22
442 -20 -22
443 37 43
444 37 43
445 37 43
446 -4 -17
447 -4 -17
448 -4 -17
449 -4 -17
450 33 -46
451 33 -46
452 -17 12
453 -17 12
454 -17 12
455 -17 12
456 -17 12
457 -17 12
458 37 4
459 37 4
460 37 4
461 37 4
462 37 4
463 -30 -33
464 -30 -33
465 -30 -33
466 -30 -33
467 -7 -17
468 -7 -17
469 -7 -17
470 -7 -17
471 29 -27
472 29 -27
473 29 -27
474 29 -27
475 29 -27
476 29 -27
477 -16 12
478 -16 12
479 -16 12
480 -16 12
481 -16 12
482 -16 12
483 -17 40
484 -39 -42
485 -39 -42
486 -26 -23
487 -26 -23
488 -26 -23
489 -26 -23
490 2 -6
491 2 -6
492 2 -6
493 5 48
494 5 48
495 5 48
496 5 48
497 -5 -36
498 -5 -36
499 -5 -36
500 -5 -36
501 -5 -36
502 34 17
503 34 17
504 34 17
505 32 35
506 32 35
507 32 35
508 32 35
509 46 30
510 46 30
511 46 30
512 46 30
513 46 30
514 46 30
515 -29 25
516 -29 25
517 -29 25
518 -29 25
519 31 16
520 31 16
521 31 16
522 31 16
523 -19 20
524 -13 -34
525 -13 -34
526 -13 -34
527 -13 -34
528 28 -16
529 28 -16
530 28 -16
531 28 -16
532 31 -45
533 31 -45
534 31 -45
535 31 -45
536 31 -45
537 34 -19
538 34 -19
539 34 -19
540 34 -19
541 34 -19
542 34 -19
543 34 -19
544 0 24
545 0 24
546 27 37
547 27 37
548 27 37
549 27 37
550 -18 -16
551 -18 -16
552 -18 -16
553 -18 -16
554 -18 -16
555 -18 -16
556 -18 -16
557 -34 28
558 -34 28
559 25 -45
560 25 -45
561 25 -45
562 27 43
563 27 43
564 27 43
565 27 43
566 37 -45
567 37 -45
568 37 -45
569 37 -45
570 37 -45
571 46 -11
572 46 -11
573 46 -11
574 46 -11
575 46 -11
576 46 -11
577 46 -11
578 12 -24
579 12 -24
580 12 -24
581 12 -24
582 12 -24
583 12 -24
584 8 -31
585 8 -31
586 8 -31
587 -21 -18
588 -21 -18
589 -21 -18
590 -21 -18
591 -21 -18
592 -21 -18
593 -21 -18
594 8 32
595 8 32
596 8 32
597 -10 11
598 -10 11
599 -10 11
600 -10 11
601 4 47
602 4 47
603 4 47
604 4 47
605 4 43
606 4 43
607 4 43
608 4 43
609 22 -3
610 22 -3
611 22 -3
612 22 -3
613 22 -3
614 22 -3
615 -42 -42
616 -41 33
617 -41 33
618 -41 33
619 -41 33
620 -41 33
621 -41 33
DEMAND_SECTION
1 0
2 20
3 10
4 5
5 1
6 1
7 1
8 1
9 20
10 20
11 1
12 1
13 1
14 20
15 20
16 5
17 1
18 20
19 5
20 1
21 10
22 5
23 1
24 1
25 1
26 20
27 5
28 20
29 10
30 1
31 1
32 1
33 1
34 20
35 20
36 1
37 1
38 1
39 20
40 20
41 5
42 1
43 20
44 5
45 1
46 1
47 1
48 20
49 10
50 5
51 1
52 1
53 20
54 20
55 5
56 1
57 20
58 10
59 5
60 1
61 1
62 1
63 20
64 20
65 20
66 10
67 20
68 5
69 1
70 1
71 1
72 20
73 10
74 5
75 20
76 5
77 1
78 1
79 20
80 20
81 1
82 10
83 5
84 1
85 1
86 10
87 5
88 20
89 20
90 20
91 1
92 1
93 1
94 1
95 10
96 5
97 1
98 1
99 1
100 20
101 10
102 5
103 1
104 10
105 5
106 1
107 1
108 20
109 20
110 5
111 10
112 1
113 1
114 1
115 1
116 20
117 1
118 1
119 1
120 10
121 5
122 1
123 10
124 5
125 1
126 1
127 20
128 5
129 1
130 1
131 1
132 1
133 20
134 5
135 1
136 1
137 1
138 1
139 20
140 1
141 1
142 1
143 1
144 10
145 5
146 1
147 1
148 1
149 20
150 10
151 1
152 1
153 1
154 1
155 10
156 1
157 1
158 1
159 20
160 20
161 1
162 20
163 20
164 5
165 1
166 1
167 1
168 1
169 20
170 1
171 20
172 10
173 1
174 1
175 1
176 1
177 20
178 1
179 10
180 5
181 1
182 1
183 1
184 10
185 5
186 1
187 1
188 1
189 1
190 20
191 1
192 1
193 1
194 1
195 20
196 10
197 5
198 1
199 20
200 20
201 1
202 1
203 1
204 10
205 1
206 1
207 20
208 20
209 10
210 5
211 1
212 1
213 1
214 1
215 10
216 5
217 1
218 1
219 1
220 1
221 20
222 1
223 1
224 1
225 20
226 20
227 20
228 5
229 1
230 1
231 1
232 20
233 10
234 5
235 1
236 1
237 1
238 10
239 5
240 1
241 20
242 20
243 1
244 1
245 1
246 10
247 1
248 1
249 1
250 1
251 20
252 20
253 1
254 1
255 1
256 20
257 5
258 1
259 10
260 5
261 20
262 20
263 1
264 1
265 1
266 1
267 10
268 5
269 1
270 1
271 1
272 20
273 20
274 5
275 1
276 1
277 20
278 10
279 5
280 1
281 1
282 20
283 5
284 1
285 20
286 10
287 1
288 1
289 1
290 1
291 20
292 10
293 20
294 20
295 1
296 1
297 1
298 1
299 20
300 20
301 5
302 1
303 20
304 5
305 1
306 1
307 1
308 20
309 1
310 20
311 20
312 5
313 1
314 1
315 1
316 20
317 20
318 1
319 1
320 1
321 20
322 20
323 5
324 20
325 5
326 1
327 20
328 20
329 20
330 10
331 5
332 1
333 1
334 1
335 10
336 1
337 1
338 1
339 20
340 1
341 1
342 1
343 20
344 1
345 20
346 20
347 1
348 1
349 1
350 20
351 5
352 20
353 20
354 20
355 10
356 5
357 1
358 1
359 1
360 20
361 1
362 1
363 20
364 5
365 1
366 1
367 20
368 5
369 1
370 1
371 1
372 20
373 5
374 1
375 1
376 1
377 1
378 20
379 20
380 1
381 1
382 20
383 20
384 5
385 1
386 1
387 20
388 5
389 1
390 20
391 10
392 20
393 10
394 1
395 1
396 1
397 20
398 5
399 1
400 1
401 1
402 1
403 20
404 10
405 1
406 20
407 1
408 1
409 20
410 20
411 1
412 20
413 20
414 10
415 5
416 1
417 20
418 1
419 1
420 20
421 10
422 5
423 20
424 20
425 1
426 1
427 20
428 10
429 1
430 20
431 10
432 1
433 1
434 1
435 20
436 5
437 1
438 1
439 1
440 20
441 5
442 1
443 10
444 5
445 1
446 20
447 5
448 1
449 1
450 10
451 5
452 20
453 10
454 1
455 1
456 1
457 1
458 20
459 10
460 5
461 1
462 1
463 20
464 5
465 1
466 1
467 20
468 10
469 1
470 1
471 20
472 20
473 5
474 1
475 1
476 1
477 20
478 10
479 5
480 1
481 1
482 1
483 20
484 10
485 5
486 20
487 5
488 1
489 1
490 20
491 10
492 5
493 20
494 20
495 5
496 1
497 20
498 10
499 5
500 1
501 1
502 20
503 20
504 5
505 10
506 1
507 1
508 1
509 20
510 20
511 5
512 1
513 1
514 1
515 20
516 10
517 1
518 1
519 20
520 10
521 1
522 1
523 20
524 20
525 10
526 5
527 1
528 20
529 20
530 5
531 1
532 10
533 5
534 1
535 1
536 1
537 20
538 10
539 5
540 1
541 1
542 1
543 1
544 20
545 1
546 20
547 10
548 5
549 1
550 20
551 10
552 5
553 1
554 1
555 1
556 1
557 20
558 5
559 20
560 10
561 5
562 20
563 20
564 5
565 1
566 20
567 1
568 1
569 1
570 1
571 20
572 10
573 5
574 1
575 1
576 1
577 1
578 20
579 5
580 1
581 1
582 1
583 1
584 20
585 10
586 5
587 20
588 20
589 5
590 1
591 1
592 1
593 1
594 20
595 20
596 5
597 20
598 5
599 1
600 1
601 10
602 5
603 1
604 1
605 20
606 10
607 1
608 1
609 20
610 5
611 1
612 1
613 1
614 1
615 20
616 20
617 10
618 1
619 1
620 1
621 1
DEPOT_SECTION
1
-1
EOF