Normalized Data/p04_24_normalized_split0.sol
620 -16 13 76 75 74 77 2 3 1 6 4 5 7 418 417 219 214 -17 18 19 233 235 231 236 595 594 593 -26 25 251 253 250 195 429 433 432 -33 35 36 37 34 380 379 377 378 354 356 357 -39 38 80 79 78 460 459 458 -41 40 571 570 573 576 572 574 575 89 88 90 92 93 91 427 -44 43 46 45 42 396 401 400 180 179 182 225 226 -54 52 53 55 158 160 159 60 61 57 59 -58 56 315 316 317 318 319 194 197 196 -64 333 331 328 329 330 332 409 408 410 -68 66 67 70 69 411 514 515 281 -86 85 175 174 173 171 172 170 14 15 257 256 255 -104 106 105 103 210 208 272 274 273 275 271 543 544 -118 117 116 115 20 24 23 22 21 48 51 49 47 50 549 -125 122 124 123 584 585 382 384 385 381 383 342 343 -132 137 135 134 133 136 486 485 224 439 440 441 -141 140 266 198 199 201 202 200 221 222 223 220 461 457 -142 139 138 422 425 424 423 491 490 489 -166 164 165 162 161 167 163 609 613 612 610 608 611 428 426 -169 168 98 95 96 97 94 108 107 109 542 540 537 539 -176 177 561 562 564 563 548 546 545 -181 178 463 464 462 465 359 152 151 150 149 148 360 153 361 -187 188 186 183 185 184 206 207 468 469 466 467 -193 190 192 191 344 346 348 345 347 405 407 406 541 536 538 529 -212 211 209 213 65 28 32 31 29 30 27 482 522 -215 217 216 218 416 260 265 263 261 264 262 349 350 488 487 -234 232 291 290 324 325 323 604 605 606 607 -238 239 237 484 483 614 111 112 110 114 113 395 392 393 394 391 -240 242 244 241 243 -249 245 248 247 246 512 508 511 509 513 510 288 287 284 289 286 285 -267 130 129 131 126 128 127 62 63 322 320 -283 282 557 556 145 147 146 143 144 616 618 615 619 617 620 205 203 204 517 516 -293 294 470 471 474 473 472 475 390 389 -298 301 299 300 338 339 340 341 81 82 84 83 72 566 567 569 -307 308 314 312 311 309 310 313 303 304 306 302 305 453 456 454 -321 269 270 268 503 502 501 520 521 518 519 -334 335 337 336 295 296 297 292 189 528 527 530 -351 352 10 12 11 8 9 227 230 228 229 397 398 399 -353 355 358 119 120 121 368 370 369 366 367 578 577 579 580 581 582 -414 415 412 413 100 99 102 101 445 -420 419 421 156 154 155 157 276 278 277 280 279 559 560 -431 430 254 252 504 507 506 505 363 364 365 362 386 387 388 442 444 443 547 -448 447 446 375 372 373 371 374 376 525 526 524 523 499 500 498 496 -451 452 455 477 478 476 481 479 480 597 599 596 598 -495 493 494 492 87 258 259 602 603 601 600 -497 435 434 438 436 437 326 327 583 -550 551 554 555 552 553 404 590 591 592 403 587 402 586 588 589 -558 533 531 532 535 534 449 450 73 71 568 565 0 





OBJ=
4204.958
BEST_KNOWN=
0.000